outputs/case_309.model.txt
responsible_for_personnel_before_registration = True
violate_article_74 = False
internal_control_system_established = True
violate_article_29 = False
violate_article_97_1_3 = False
violate_article_73 = False
obstruct_investigation = False
violate_article_28_1 = False
personnel_registration_revoked_conditions = False
violate_article_84_2_pre = False
not_report_documents = False
personnel_registration_revoked = False
violate_article_72_1 = False
violate_article_66_1 = False
violate_order_article_82_3 = False
violate_order_article_45_2_post = False
internal_control_system_recorded = True
violation_futures_service = False
violate_article_97_1_1 = False
violate_article_82_2 = False
violate_article_80_3 = False
overdue_non_submission = False
internal_control_system_updated = True
violate_article_70_1 = False
registered_salesperson_executing = True
unjustified_absence = False
violate_article_104_2 = False
violate_article_81_18 = False
violate_order_article_93 = False
violation_order = False
not_store_records = False
violation_futures_broker = False
internal_control_system_reported_to_board = True
personnel_change_reported_timely = True
violate_article_105 = False
refuse_inspection = False
not_completed_training = False
work_permit_reissued_or_returned = True
personnel_registration_valid = True
internal_control_system_defined = True
violation_clearing_mandate = False
internal_control_system_change_approved_by_board = True
violation_non_submission_or_obstruction = False
not_meet_qualification_article_26_3 = False
not_produce_books = False
violate_article_18 = False
violate_article_5 = False
personnel_responsibility_before_registration = True
involved_in_untrustworthy_activities = False
violate_article_57_1 = False
violation_any = False
obstruct_inspection = False
violate_order_article_8_2 = False
violate_article_65_1 = False
violate_article_67 = False
business_managed_by_dedicated_department = True
not_preserve_files = False
violate_article_64 = False
violate_article_3_2_clause = False
violate_article_87_1 = False
violate_article_78_1 = False
violate_order_article_56_5 = False
violate_order_article_80_4 = False
violation_obstruct_investigation = False
personnel_change_reported_within_5_days = True
violate_article_45_2_pre = False
dedicated_department_assigned = True
refuse_provide_documents = False
violate_article_10_1 = False
violate_article_85_1 = False
internal_control_system_change_reported = True
violate_article_56_4 = False
dedicated_person_assigned = True
violation_leverage_trader = False
penalty = False
violate_order_article_85_2 = False
violate_clearing_entity_article_55_18 = False
violate_article_88_18 = False
not_announce_reports = False
internal_control_system_change_within_deadline = True
personnel_registered = True
business_executed_by_registered_salesperson = True
violation_document_noncompliance = False
violate_article_79_18 = False